(set-info :source |printed by MathSAT|)
(declare-fun hhv_ULTIMATE.start_L16_0_Int () Int)
(declare-fun .x.388 () Int)
(declare-fun hbv_ULTIMATE.start_L25-4_1_Array_Int_Int () (Array Int Int))
(declare-fun .x.389 () (Array Int Int))
(declare-fun hhv_ULTIMATE.start_L16_2_Array_Int_Int () (Array Int Int))
(declare-fun .x.390 () (Array Int Int))
(declare-fun hhv_ULTIMATE.start_L16_3_Array_Int_Array_Int_Int () (Array Int (Array Int Int)))
(declare-fun .x.391 () (Array Int (Array Int Int)))
(declare-fun hhv_ULTIMATE.start_L16_4_Array_Int_Array_Int_Int () (Array Int (Array Int Int)))
(declare-fun .x.392 () (Array Int (Array Int Int)))
(declare-fun hhv_ULTIMATE.start_L16_5_Int () Int)
(declare-fun .x.393 () Int)
(declare-fun hhv_ULTIMATE.start_L16_6_Int () Int)
(declare-fun .x.394 () Int)
(declare-fun hhv_ULTIMATE.start_L16_7_Array_Int_Int () (Array Int Int))
(declare-fun .x.395 () (Array Int Int))
(declare-fun hhv_ULTIMATE.start_L16_8_Array_Int_Int () (Array Int Int))
(declare-fun .x.396 () (Array Int Int))
(declare-fun hhv_ULTIMATE.start_L16_9_Int () Int)
(declare-fun .x.397 () Int)
(declare-fun hhv_ULTIMATE.start_L16_10_Int () Int)
(declare-fun .x.398 () Int)
(declare-fun hhv_ULTIMATE.start_L16_11_Int () Int)
(declare-fun .x.399 () Int)
(declare-fun hbv_ULTIMATE.start_L25-4_12_Int () Int)
(declare-fun .x.400 () Int)
(declare-fun hhv_ULTIMATE.start_L16_13_Int () Int)
(declare-fun .x.401 () Int)
(declare-fun hhv_ULTIMATE.start_L16_14_Int () Int)
(declare-fun .x.402 () Int)
(declare-fun hhv_ULTIMATE.start_L16_15_Int () Int)
(declare-fun .x.403 () Int)
(declare-fun hhv_ULTIMATE.start_L16_16_Int () Int)
(declare-fun .x.404 () Int)
(declare-fun hhv_ULTIMATE.start_L16_17_Int () Int)
(declare-fun .x.405 () Int)
(declare-fun hhv_ULTIMATE.start_L16_18_Int () Int)
(declare-fun .x.406 () Int)
(declare-fun hbv_ULTIMATE.start_L25-4_19_Int () Int)
(declare-fun .x.407 () Int)
(declare-fun hhv_ULTIMATE.start_L16_20_Int () Int)
(declare-fun .x.408 () Int)
(declare-fun hhv_ULTIMATE.start_L16_21_Int () Int)
(declare-fun .x.409 () Int)
(declare-fun hhv_ULTIMATE.start_L16_22_Bool () Bool)
(declare-fun .x.410 () Bool)
(declare-fun .loc.5 () Bool)
(declare-fun .loc.9 () Bool)
(declare-fun .loc.6 () Bool)
(declare-fun .loc.10 () Bool)
(declare-fun .loc.7 () Bool)
(declare-fun .loc.11 () Bool)
(declare-fun .loc.8 () Bool)
(declare-fun .loc.12 () Bool)
(declare-fun hbv_ULTIMATE.start_L-1_1_Array_Int_Int () (Array Int Int))
(define-fun .def_8 () Int (! hhv_ULTIMATE.start_L16_0_Int :next |.x.388|))
(define-fun .def_10 () (Array Int Int) (! hbv_ULTIMATE.start_L25-4_1_Array_Int_Int :next |.x.389|))
(define-fun .def_12 () (Array Int Int) (! hhv_ULTIMATE.start_L16_2_Array_Int_Int :next |.x.390|))
(define-fun .def_14 () (Array Int (Array Int Int)) (! hhv_ULTIMATE.start_L16_3_Array_Int_Array_Int_Int :next |.x.391|))
(define-fun .def_16 () (Array Int (Array Int Int)) (! hhv_ULTIMATE.start_L16_4_Array_Int_Array_Int_Int :next |.x.392|))
(define-fun .def_18 () Int (! hhv_ULTIMATE.start_L16_5_Int :next |.x.393|))
(define-fun .def_20 () Int (! hhv_ULTIMATE.start_L16_6_Int :next |.x.394|))
(define-fun .def_22 () (Array Int Int) (! hhv_ULTIMATE.start_L16_7_Array_Int_Int :next |.x.395|))
(define-fun .def_24 () (Array Int Int) (! hhv_ULTIMATE.start_L16_8_Array_Int_Int :next |.x.396|))
(define-fun .def_26 () Int (! hhv_ULTIMATE.start_L16_9_Int :next |.x.397|))
(define-fun .def_28 () Int (! hhv_ULTIMATE.start_L16_10_Int :next |.x.398|))
(define-fun .def_30 () Int (! hhv_ULTIMATE.start_L16_11_Int :next |.x.399|))
(define-fun .def_32 () Int (! hbv_ULTIMATE.start_L25-4_12_Int :next |.x.400|))
(define-fun .def_34 () Int (! hhv_ULTIMATE.start_L16_13_Int :next |.x.401|))
(define-fun .def_36 () Int (! hhv_ULTIMATE.start_L16_14_Int :next |.x.402|))
(define-fun .def_38 () Int (! hhv_ULTIMATE.start_L16_15_Int :next |.x.403|))
(define-fun .def_40 () Int (! hhv_ULTIMATE.start_L16_16_Int :next |.x.404|))
(define-fun .def_42 () Int (! hhv_ULTIMATE.start_L16_17_Int :next |.x.405|))
(define-fun .def_44 () Int (! hhv_ULTIMATE.start_L16_18_Int :next |.x.406|))
(define-fun .def_46 () Int (! hbv_ULTIMATE.start_L25-4_19_Int :next |.x.407|))
(define-fun .def_48 () Int (! hhv_ULTIMATE.start_L16_20_Int :next |.x.408|))
(define-fun .def_50 () Int (! hhv_ULTIMATE.start_L16_21_Int :next |.x.409|))
(define-fun .def_52 () Bool (! hhv_ULTIMATE.start_L16_22_Bool :next |.x.410|))
(define-fun .def_54 () Bool (! .loc.5 :next |.loc.9|))
(define-fun .def_56 () Bool (! .loc.6 :next |.loc.10|))
(define-fun .def_58 () Bool (! .loc.7 :next |.loc.11|))
(define-fun .def_60 () Bool (! .loc.8 :next |.loc.12|))
(define-fun .def_85 () (Array Int Int) (! hbv_ULTIMATE.start_L-1_1_Array_Int_Int :next |.xtv.1|))
(define-fun .def_552 () Bool (and .def_54 .def_56))
(define-fun .def_71 () Bool (not .def_58))
(define-fun .def_553 () Bool (and .def_71 .def_552))
(define-fun .def_76 () Bool (not .def_60))
(define-fun .def_554 () Bool (and .def_76 .def_553))
(define-fun .def_546 () Bool (= .def_10 .def_12))
(define-fun .def_545 () Bool (not .def_52))
(define-fun .def_547 () Bool (and .def_545 .def_546))
(define-fun .def_544 () Bool (= .def_22 .def_24))
(define-fun .def_548 () Bool (and .def_544 .def_547))
(define-fun .def_543 () Bool (= .def_18 .def_20))
(define-fun .def_549 () Bool (and .def_543 .def_548))
(define-fun .def_542 () Bool (= .def_14 .def_16))
(define-fun .def_550 () Bool (and .def_542 .def_549))
(define-fun .def_541 () Bool (= .def_26 .def_28))
(define-fun .def_551 () Bool (and .def_541 .def_550))
(define-fun .def_555 () Bool (! (and .def_551 .def_554) :init true))
(define-fun .def_538 () Bool (= .def_28 .x.398))
(define-fun .def_536 () Bool (= .def_24 .x.396))
(define-fun .def_534 () Bool (= .def_20 .x.394))
(define-fun .def_532 () Bool (= .def_16 .x.392))
(define-fun .def_530 () Bool (= .def_8 .x.388))
(define-fun .def_529 () Bool (= .def_12 .x.390))
(define-fun .def_531 () Bool (and .def_529 .def_530))
(define-fun .def_533 () Bool (and .def_531 .def_532))
(define-fun .def_535 () Bool (and .def_533 .def_534))
(define-fun .def_537 () Bool (and .def_535 .def_536))
(define-fun .def_539 () Bool (and .def_537 .def_538))
(define-fun .def_498 () Bool (= .x.399 .x.403))
(define-fun .def_499 () Bool (or .x.410 .def_498))
(define-fun .def_494 () (Array Int Int) (store .def_10 .def_32 0))
(define-fun .def_495 () Bool (= .x.389 .def_494))
(define-fun .def_496 () Bool (or .def_52 .def_495))
(define-fun .def_67 () Bool (= .def_52 .x.410))
(define-fun .def_497 () Bool (and .def_67 .def_496))
(define-fun .def_500 () Bool (and .def_497 .def_499))
(define-fun .def_501 () Bool (and .def_56 .def_500))
(define-fun .def_251 () Bool (not .def_54))
(define-fun .def_502 () Bool (and .def_251 .def_501))
(define-fun .def_476 () Bool (and .x.410 .def_54))
(define-fun .def_212 () Bool (not .def_56))
(define-fun .def_489 () Bool (and .def_212 .def_476))
(define-fun .def_139 () Bool (= .def_46 .x.407))
(define-fun .def_490 () Bool (and .def_139 .def_489))
(define-fun .def_141 () Bool (= .def_32 .x.400))
(define-fun .def_491 () Bool (and .def_141 .def_490))
(define-fun .def_74 () Bool (= .def_30 .x.399))
(define-fun .def_492 () Bool (and .def_74 .def_491))
(define-fun .def_144 () Bool (= .def_10 .x.389))
(define-fun .def_493 () Bool (and .def_144 .def_492))
(define-fun .def_503 () Bool (or .def_493 .def_502))
(define-fun .def_65 () Bool (= .def_48 .x.408))
(define-fun .def_62 () Bool (= .def_36 .x.402))
(define-fun .def_462 () Bool (and .def_62 .def_65))
(define-fun .def_205 () Bool (= .def_50 .x.409))
(define-fun .def_463 () Bool (and .def_205 .def_462))
(define-fun .def_487 () Bool (and .def_60 .def_463))
(define-fun .def_488 () Bool (and .def_71 .def_487))
(define-fun .def_504 () Bool (and .def_488 .def_503))
(define-fun .def_239 () Bool (= .x.402 0))
(define-fun .def_484 () Bool (or .def_52 .def_239))
(define-fun .def_477 () Bool (and .def_56 .def_476))
(define-fun .def_478 () Bool (and .def_58 .def_477))
(define-fun .def_479 () Bool (and .def_139 .def_478))
(define-fun .def_480 () Bool (and .def_141 .def_479))
(define-fun .def_481 () Bool (and .def_74 .def_480))
(define-fun .def_482 () Bool (and .def_144 .def_481))
(define-fun .def_483 () Bool (and .def_76 .def_482))
(define-fun .def_485 () Bool (and .def_483 .def_484))
(define-fun .def_155 () Real (* (/ 1 4294967296) (to_real .def_34)))
(define-fun .def_156 () Int (to_int .def_155))
(define-fun .def_158 () Int (* (- 4294967296) .def_156))
(define-fun .def_159 () Int (+ .def_34 .def_158))
(define-fun .def_181 () Int (+ (- 4294967296) .def_159))
(define-fun .def_183 () Bool (<= .def_159 2147483647))
(define-fun .def_184 () Int (ite .def_183 .def_159 .def_181))
(define-fun .def_186 () Int (* 4 .def_184))
(define-fun .def_187 () Int (+ .def_46 .def_186))
(define-fun .def_188 () (Array Int Int) (select .def_14 .def_32))
(define-fun .def_189 () Int (select .def_188 .def_187))
(define-fun .def_190 () Bool (= .x.409 .def_189))
(define-fun .def_173 () Real (* (/ 1 4294967296) (to_real .x.409)))
(define-fun .def_174 () Int (to_int .def_173))
(define-fun .def_175 () Int (* (- 4294967296) .def_174))
(define-fun .def_176 () Int (+ .x.409 .def_175))
(define-fun .def_177 () Bool (= .def_176 0))
(define-fun .def_178 () Bool (not .def_177))
(define-fun .def_179 () Int (ite .def_178 1 0))
(define-fun .def_180 () Bool (= .x.408 .def_179))
(define-fun .def_191 () Bool (and .def_180 .def_190))
(define-fun .def_172 () Bool (= .x.402 .x.408))
(define-fun .def_192 () Bool (and .def_172 .def_191))
(define-fun .def_148 () Real (* (/ 1 2) (to_real .def_34)))
(define-fun .def_149 () Int (to_int .def_148))
(define-fun .def_151 () Int (* (- 2) .def_149))
(define-fun .def_152 () Int (+ .def_34 .def_151))
(define-fun .def_153 () Int (+ (- 2) .def_152))
(define-fun .def_162 () Bool (= .def_152 0))
(define-fun .def_163 () Bool (not .def_162))
(define-fun .def_160 () Bool (<= 0 .def_159))
(define-fun .def_161 () Bool (not .def_160))
(define-fun .def_164 () Bool (and .def_161 .def_163))
(define-fun .def_165 () Int (ite .def_164 .def_153 .def_152))
(define-fun .def_166 () Real (* (/ 1 4294967296) (to_real .def_165)))
(define-fun .def_167 () Int (to_int .def_166))
(define-fun .def_168 () Int (* (- 4294967296) .def_167))
(define-fun .def_169 () Int (+ .def_165 .def_168))
(define-fun .def_170 () Bool (= .def_169 0))
(define-fun .def_171 () Bool (not .def_170))
(define-fun .def_193 () Bool (and .def_171 .def_192))
(define-fun .def_194 () Bool (or .def_52 .def_193))
(define-fun .def_486 () Bool (and .def_194 .def_485))
(define-fun .def_505 () Bool (or .def_486 .def_504))
(define-fun .def_506 () Bool (and .loc.10 .def_505))
(define-fun .def_263 () Bool (= .def_36 0))
(define-fun .def_474 () Bool (or .def_52 .def_263))
(define-fun .def_464 () Bool (and .def_67 .def_463))
(define-fun .def_465 () Bool (and .def_60 .def_464))
(define-fun .def_466 () Bool (and .def_251 .def_465))
(define-fun .def_467 () Bool (and .def_71 .def_466))
(define-fun .def_468 () Bool (and .def_212 .def_467))
(define-fun .def_469 () Bool (and .def_139 .def_468))
(define-fun .def_470 () Bool (and .def_141 .def_469))
(define-fun .def_471 () Bool (and .def_74 .def_470))
(define-fun .def_472 () Bool (and .def_144 .def_471))
(define-fun .def_78 () Bool (not .loc.10))
(define-fun .def_473 () Bool (and .def_78 .def_472))
(define-fun .def_475 () Bool (and .def_473 .def_474))
(define-fun .def_507 () Bool (or .def_475 .def_506))
(define-fun .def_127 () Bool (= .def_40 .x.404))
(define-fun .def_461 () Bool (and .loc.9 .def_127))
(define-fun .def_508 () Bool (and .def_461 .def_507))
(define-fun .def_456 () Bool (= .x.404 .def_189))
(define-fun .def_448 () Real (* (/ 1 4294967296) (to_real .x.404)))
(define-fun .def_449 () Int (to_int .def_448))
(define-fun .def_450 () Int (* (- 4294967296) .def_449))
(define-fun .def_451 () Int (+ .x.404 .def_450))
(define-fun .def_452 () Bool (= .def_451 0))
(define-fun .def_453 () Int (ite .def_452 1 0))
(define-fun .def_454 () Bool (= .x.408 .def_453))
(define-fun .def_455 () Bool (and .def_172 .def_454))
(define-fun .def_457 () Bool (and .def_455 .def_456))
(define-fun .def_458 () Bool (and .def_170 .def_457))
(define-fun .def_459 () Bool (or .def_52 .def_458))
(define-fun .def_437 () Bool (and .def_67 .def_205))
(define-fun .def_438 () Bool (and .def_54 .def_437))
(define-fun .def_439 () Bool (and .def_56 .def_438))
(define-fun .def_440 () Bool (and .def_58 .def_439))
(define-fun .def_441 () Bool (and .def_139 .def_440))
(define-fun .def_442 () Bool (and .def_141 .def_441))
(define-fun .def_443 () Bool (and .def_74 .def_442))
(define-fun .def_444 () Bool (and .def_144 .def_443))
(define-fun .def_445 () Bool (and .def_76 .def_444))
(define-fun .def_446 () Bool (and .def_78 .def_445))
(define-fun .def_80 () Bool (not .loc.9))
(define-fun .def_447 () Bool (and .def_80 .def_446))
(define-fun .def_460 () Bool (and .def_447 .def_459))
(define-fun .def_509 () Bool (or .def_460 .def_508))
(define-fun .def_422 () Bool (and .def_52 .def_62))
(define-fun .def_423 () Bool (and .def_127 .def_422))
(define-fun .def_424 () Bool (and .def_65 .def_423))
(define-fun .def_425 () Bool (and .def_205 .def_424))
(define-fun .def_426 () Bool (and .def_67 .def_425))
(define-fun .def_427 () Bool (and .def_56 .def_426))
(define-fun .def_428 () Bool (and .def_58 .def_427))
(define-fun .def_429 () Bool (and .def_251 .def_428))
(define-fun .def_430 () Bool (and .loc.10 .def_429))
(define-fun .def_431 () Bool (and .def_139 .def_430))
(define-fun .def_432 () Bool (and .def_141 .def_431))
(define-fun .def_433 () Bool (and .def_74 .def_432))
(define-fun .def_434 () Bool (and .def_144 .def_433))
(define-fun .def_435 () Bool (and .def_76 .def_434))
(define-fun .def_436 () Bool (and .def_80 .def_435))
(define-fun .def_510 () Bool (or .def_436 .def_509))
(define-fun .def_267 () Bool (and .def_62 .def_127))
(define-fun .def_382 () Bool (and .def_65 .def_267))
(define-fun .def_383 () Bool (and .def_205 .def_382))
(define-fun .def_384 () Bool (and .def_67 .def_383))
(define-fun .def_385 () Bool (and .def_56 .def_384))
(define-fun .def_400 () Bool (and .def_58 .def_385))
(define-fun .def_401 () Bool (and .def_251 .def_400))
(define-fun .def_414 () Bool (and .loc.10 .def_401))
(define-fun .def_415 () Bool (and .def_139 .def_414))
(define-fun .def_416 () Bool (and .def_141 .def_415))
(define-fun .def_417 () Bool (and .def_74 .def_416))
(define-fun .def_418 () Bool (and .def_144 .def_417))
(define-fun .def_419 () Bool (and .def_76 .def_418))
(define-fun .def_420 () Bool (and .def_80 .def_419))
(define-fun .def_294 () Bool (<= 1000 .def_159))
(define-fun .def_317 () Bool (or .def_52 .def_294))
(define-fun .def_421 () Bool (and .def_317 .def_420))
(define-fun .def_511 () Bool (or .def_421 .def_510))
(define-fun .def_137 () Bool (not .loc.11))
(define-fun .def_413 () Bool (and .loc.12 .def_137))
(define-fun .def_512 () Bool (and .def_413 .def_511))
(define-fun .def_295 () Bool (not .def_294))
(define-fun .def_411 () Bool (or .def_52 .def_295))
(define-fun .def_402 () Bool (and .loc.9 .def_401))
(define-fun .def_403 () Bool (and .loc.10 .def_402))
(define-fun .def_404 () Bool (and .loc.11 .def_403))
(define-fun .def_405 () Bool (and .def_139 .def_404))
(define-fun .def_406 () Bool (and .def_141 .def_405))
(define-fun .def_407 () Bool (and .def_74 .def_406))
(define-fun .def_408 () Bool (and .def_144 .def_407))
(define-fun .def_409 () Bool (and .def_76 .def_408))
(define-fun .def_82 () Bool (not .loc.12))
(define-fun .def_410 () Bool (and .def_82 .def_409))
(define-fun .def_412 () Bool (and .def_410 .def_411))
(define-fun .def_513 () Bool (or .def_412 .def_512))
(define-fun .def_129 () Bool (= .def_42 .x.405))
(define-fun .def_125 () Bool (= .def_34 .x.401))
(define-fun .def_399 () Bool (and .def_125 .def_129))
(define-fun .def_514 () Bool (and .def_399 .def_513))
(define-fun .def_285 () Int (* (- 1) .x.401))
(define-fun .def_286 () Int (+ .def_34 .def_285))
(define-fun .def_287 () Bool (= .def_286 (- 1)))
(define-fun .def_397 () Bool (or .def_52 .def_287))
(define-fun .def_386 () Bool (and .def_251 .def_385))
(define-fun .def_387 () Bool (and .def_71 .def_386))
(define-fun .def_388 () Bool (and .loc.10 .def_387))
(define-fun .def_389 () Bool (and .loc.11 .def_388))
(define-fun .def_390 () Bool (and .def_139 .def_389))
(define-fun .def_391 () Bool (and .def_141 .def_390))
(define-fun .def_392 () Bool (and .def_74 .def_391))
(define-fun .def_393 () Bool (and .def_144 .def_392))
(define-fun .def_394 () Bool (and .def_76 .def_393))
(define-fun .def_395 () Bool (and .def_80 .def_394))
(define-fun .def_396 () Bool (and .def_82 .def_395))
(define-fun .def_398 () Bool (and .def_396 .def_397))
(define-fun .def_515 () Bool (or .def_398 .def_514))
(define-fun .def_102 () Bool (= .x.401 0))
(define-fun .def_380 () Bool (or .def_52 .def_102))
(define-fun .def_268 () Bool (and .def_129 .def_267))
(define-fun .def_269 () Bool (and .def_65 .def_268))
(define-fun .def_270 () Bool (and .def_205 .def_269))
(define-fun .def_271 () Bool (and .def_67 .def_270))
(define-fun .def_368 () Bool (and .def_54 .def_271))
(define-fun .def_369 () Bool (and .def_58 .def_368))
(define-fun .def_370 () Bool (and .loc.10 .def_369))
(define-fun .def_371 () Bool (and .loc.11 .def_370))
(define-fun .def_372 () Bool (and .def_212 .def_371))
(define-fun .def_373 () Bool (and .def_139 .def_372))
(define-fun .def_374 () Bool (and .def_141 .def_373))
(define-fun .def_375 () Bool (and .def_74 .def_374))
(define-fun .def_376 () Bool (and .def_144 .def_375))
(define-fun .def_377 () Bool (and .def_76 .def_376))
(define-fun .def_378 () Bool (and .def_80 .def_377))
(define-fun .def_379 () Bool (and .def_82 .def_378))
(define-fun .def_381 () Bool (and .def_379 .def_380))
(define-fun .def_516 () Bool (or .def_381 .def_515))
(define-fun .def_300 () Bool (and .def_62 .def_125))
(define-fun .def_352 () Bool (and .def_129 .def_300))
(define-fun .def_353 () Bool (and .def_65 .def_352))
(define-fun .def_354 () Bool (and .def_205 .def_353))
(define-fun .def_355 () Bool (and .def_67 .def_354))
(define-fun .def_356 () Bool (and .def_251 .def_355))
(define-fun .def_357 () Bool (and .def_71 .def_356))
(define-fun .def_358 () Bool (and .loc.10 .def_357))
(define-fun .def_359 () Bool (and .def_137 .def_358))
(define-fun .def_360 () Bool (and .def_212 .def_359))
(define-fun .def_361 () Bool (and .def_139 .def_360))
(define-fun .def_362 () Bool (and .def_141 .def_361))
(define-fun .def_363 () Bool (and .def_74 .def_362))
(define-fun .def_364 () Bool (and .def_144 .def_363))
(define-fun .def_365 () Bool (and .def_76 .def_364))
(define-fun .def_366 () Bool (and .def_80 .def_365))
(define-fun .def_367 () Bool (and .def_82 .def_366))
(define-fun .def_517 () Bool (or .def_367 .def_516))
(define-fun .def_301 () Bool (and .def_127 .def_300))
(define-fun .def_302 () Bool (and .def_129 .def_301))
(define-fun .def_303 () Bool (and .def_65 .def_302))
(define-fun .def_339 () Bool (and .def_67 .def_303))
(define-fun .def_340 () Bool (and .def_54 .def_339))
(define-fun .def_341 () Bool (and .def_71 .def_340))
(define-fun .def_342 () Bool (and .loc.10 .def_341))
(define-fun .def_343 () Bool (and .def_137 .def_342))
(define-fun .def_344 () Bool (and .def_212 .def_343))
(define-fun .def_345 () Bool (and .def_139 .def_344))
(define-fun .def_346 () Bool (and .def_141 .def_345))
(define-fun .def_347 () Bool (and .def_74 .def_346))
(define-fun .def_348 () Bool (and .def_144 .def_347))
(define-fun .def_349 () Bool (and .def_76 .def_348))
(define-fun .def_350 () Bool (and .def_80 .def_349))
(define-fun .def_351 () Bool (and .def_82 .def_350))
(define-fun .def_518 () Bool (or .def_351 .def_517))
(define-fun .def_320 () Bool (and .def_52 .def_125))
(define-fun .def_321 () Bool (and .def_62 .def_320))
(define-fun .def_322 () Bool (and .def_127 .def_321))
(define-fun .def_323 () Bool (and .def_129 .def_322))
(define-fun .def_324 () Bool (and .def_65 .def_323))
(define-fun .def_325 () Bool (and .def_205 .def_324))
(define-fun .def_326 () Bool (and .def_67 .def_325))
(define-fun .def_327 () Bool (and .def_58 .def_326))
(define-fun .def_328 () Bool (and .def_251 .def_327))
(define-fun .def_329 () Bool (and .loc.9 .def_328))
(define-fun .def_330 () Bool (and .loc.11 .def_329))
(define-fun .def_331 () Bool (and .def_212 .def_330))
(define-fun .def_332 () Bool (and .def_139 .def_331))
(define-fun .def_333 () Bool (and .def_141 .def_332))
(define-fun .def_334 () Bool (and .def_74 .def_333))
(define-fun .def_335 () Bool (and .def_144 .def_334))
(define-fun .def_336 () Bool (and .def_76 .def_335))
(define-fun .def_337 () Bool (and .def_78 .def_336))
(define-fun .def_338 () Bool (and .def_82 .def_337))
(define-fun .def_519 () Bool (or .def_338 .def_518))
(define-fun .def_304 () Bool (and .def_205 .def_303))
(define-fun .def_305 () Bool (and .def_67 .def_304))
(define-fun .def_306 () Bool (and .def_58 .def_305))
(define-fun .def_307 () Bool (and .def_251 .def_306))
(define-fun .def_308 () Bool (and .loc.9 .def_307))
(define-fun .def_309 () Bool (and .loc.11 .def_308))
(define-fun .def_310 () Bool (and .def_212 .def_309))
(define-fun .def_311 () Bool (and .def_139 .def_310))
(define-fun .def_312 () Bool (and .def_141 .def_311))
(define-fun .def_313 () Bool (and .def_74 .def_312))
(define-fun .def_314 () Bool (and .def_144 .def_313))
(define-fun .def_315 () Bool (and .def_76 .def_314))
(define-fun .def_316 () Bool (and .def_78 .def_315))
(define-fun .def_318 () Bool (and .def_316 .def_317))
(define-fun .def_319 () Bool (and .def_82 .def_318))
(define-fun .def_520 () Bool (or .def_319 .def_519))
(define-fun .def_131 () Bool (= .def_44 .x.406))
(define-fun .def_63 () Bool (= .def_14 .x.391))
(define-fun .def_299 () Bool (and .def_63 .def_131))
(define-fun .def_521 () Bool (and .def_299 .def_520))
(define-fun .def_290 () (Array Int Int) (store .def_188 .def_187 .def_165))
(define-fun .def_291 () (Array Int (Array Int Int)) (store .def_14 .def_32 .def_290))
(define-fun .def_292 () Bool (= .x.391 .def_291))
(define-fun .def_296 () Bool (and .def_292 .def_295))
(define-fun .def_297 () Bool (or .def_52 .def_296))
(define-fun .def_288 () Bool (or .x.410 .def_287))
(define-fun .def_272 () Bool (and .def_58 .def_271))
(define-fun .def_273 () Bool (and .def_251 .def_272))
(define-fun .def_274 () Bool (and .loc.11 .def_273))
(define-fun .def_275 () Bool (and .def_212 .def_274))
(define-fun .def_276 () Bool (and .def_139 .def_275))
(define-fun .def_277 () Bool (and .def_141 .def_276))
(define-fun .def_278 () Bool (and .def_74 .def_277))
(define-fun .def_279 () Bool (and .def_144 .def_278))
(define-fun .def_280 () Bool (and .def_76 .def_279))
(define-fun .def_281 () Bool (and .def_78 .def_280))
(define-fun .def_282 () Bool (and .def_80 .def_281))
(define-fun .def_283 () Bool (and .def_82 .def_282))
(define-fun .def_289 () Bool (and .def_283 .def_288))
(define-fun .def_298 () Bool (and .def_289 .def_297))
(define-fun .def_522 () Bool (or .def_298 .def_521))
(define-fun .def_264 () Bool (not .def_263))
(define-fun .def_265 () Bool (or .def_52 .def_264))
(define-fun .def_221 () Bool (and .def_63 .def_125))
(define-fun .def_243 () Bool (and .def_62 .def_221))
(define-fun .def_244 () Bool (and .def_127 .def_243))
(define-fun .def_245 () Bool (and .def_129 .def_244))
(define-fun .def_246 () Bool (and .def_131 .def_245))
(define-fun .def_247 () Bool (and .def_65 .def_246))
(define-fun .def_248 () Bool (and .def_205 .def_247))
(define-fun .def_249 () Bool (and .def_67 .def_248))
(define-fun .def_250 () Bool (and .def_60 .def_249))
(define-fun .def_252 () Bool (and .def_250 .def_251))
(define-fun .def_253 () Bool (and .def_71 .def_252))
(define-fun .def_254 () Bool (and .def_137 .def_253))
(define-fun .def_255 () Bool (and .def_212 .def_254))
(define-fun .def_256 () Bool (and .def_139 .def_255))
(define-fun .def_257 () Bool (and .def_141 .def_256))
(define-fun .def_258 () Bool (and .def_74 .def_257))
(define-fun .def_259 () Bool (and .def_144 .def_258))
(define-fun .def_260 () Bool (and .def_78 .def_259))
(define-fun .def_261 () Bool (and .def_80 .def_260))
(define-fun .def_262 () Bool (and .def_82 .def_261))
(define-fun .def_266 () Bool (and .def_262 .def_265))
(define-fun .def_523 () Bool (or .def_266 .def_522))
(define-fun .def_240 () Bool (not .def_239))
(define-fun .def_241 () Bool (or .x.410 .def_240))
(define-fun .def_222 () Bool (and .def_127 .def_221))
(define-fun .def_223 () Bool (and .def_129 .def_222))
(define-fun .def_224 () Bool (and .def_131 .def_223))
(define-fun .def_225 () Bool (and .def_67 .def_224))
(define-fun .def_226 () Bool (and .def_54 .def_225))
(define-fun .def_227 () Bool (and .def_56 .def_226))
(define-fun .def_228 () Bool (and .def_58 .def_227))
(define-fun .def_229 () Bool (and .loc.9 .def_228))
(define-fun .def_230 () Bool (and .def_137 .def_229))
(define-fun .def_231 () Bool (and .def_139 .def_230))
(define-fun .def_232 () Bool (and .def_141 .def_231))
(define-fun .def_233 () Bool (and .def_74 .def_232))
(define-fun .def_234 () Bool (and .def_144 .def_233))
(define-fun .def_235 () Bool (and .def_76 .def_234))
(define-fun .def_236 () Bool (and .def_194 .def_235))
(define-fun .def_237 () Bool (and .def_78 .def_236))
(define-fun .def_238 () Bool (and .def_82 .def_237))
(define-fun .def_242 () Bool (and .def_238 .def_241))
(define-fun .def_524 () Bool (or .def_242 .def_523))
(define-fun .def_198 () Bool (and .def_52 .def_63))
(define-fun .def_199 () Bool (and .def_125 .def_198))
(define-fun .def_200 () Bool (and .def_62 .def_199))
(define-fun .def_201 () Bool (and .def_127 .def_200))
(define-fun .def_202 () Bool (and .def_129 .def_201))
(define-fun .def_203 () Bool (and .def_131 .def_202))
(define-fun .def_204 () Bool (and .def_65 .def_203))
(define-fun .def_206 () Bool (and .def_204 .def_205))
(define-fun .def_207 () Bool (and .def_67 .def_206))
(define-fun .def_208 () Bool (and .def_54 .def_207))
(define-fun .def_209 () Bool (and .def_60 .def_208))
(define-fun .def_210 () Bool (and .def_71 .def_209))
(define-fun .def_211 () Bool (and .def_137 .def_210))
(define-fun .def_213 () Bool (and .def_211 .def_212))
(define-fun .def_214 () Bool (and .def_139 .def_213))
(define-fun .def_215 () Bool (and .def_141 .def_214))
(define-fun .def_216 () Bool (and .def_74 .def_215))
(define-fun .def_217 () Bool (and .def_144 .def_216))
(define-fun .def_218 () Bool (and .def_78 .def_217))
(define-fun .def_219 () Bool (and .def_80 .def_218))
(define-fun .def_220 () Bool (and .def_82 .def_219))
(define-fun .def_525 () Bool (or .def_220 .def_524))
(define-fun .def_123 () Bool (and .def_52 .x.410))
(define-fun .def_124 () Bool (and .def_63 .def_123))
(define-fun .def_126 () Bool (and .def_124 .def_125))
(define-fun .def_128 () Bool (and .def_126 .def_127))
(define-fun .def_130 () Bool (and .def_128 .def_129))
(define-fun .def_132 () Bool (and .def_130 .def_131))
(define-fun .def_133 () Bool (and .def_54 .def_132))
(define-fun .def_134 () Bool (and .def_56 .def_133))
(define-fun .def_135 () Bool (and .def_58 .def_134))
(define-fun .def_136 () Bool (and .loc.9 .def_135))
(define-fun .def_138 () Bool (and .def_136 .def_137))
(define-fun .def_140 () Bool (and .def_138 .def_139))
(define-fun .def_142 () Bool (and .def_140 .def_141))
(define-fun .def_143 () Bool (and .def_74 .def_142))
(define-fun .def_145 () Bool (and .def_143 .def_144))
(define-fun .def_146 () Bool (and .def_76 .def_145))
(define-fun .def_195 () Bool (and .def_146 .def_194))
(define-fun .def_196 () Bool (and .def_78 .def_195))
(define-fun .def_197 () Bool (and .def_82 .def_196))
(define-fun .def_526 () Bool (or .def_197 .def_525))
(define-fun .def_121 () Bool (= .def_38 .x.403))
(define-fun .def_119 () Bool (= .def_26 .x.397))
(define-fun .def_117 () Bool (= .def_18 .x.393))
(define-fun .def_116 () Bool (= .def_22 .x.395))
(define-fun .def_118 () Bool (and .def_116 .def_117))
(define-fun .def_120 () Bool (and .def_118 .def_119))
(define-fun .def_122 () Bool (and .def_120 .def_121))
(define-fun .def_527 () Bool (and .def_122 .def_526))
(define-fun .def_111 () Bool (= .x.393 0))
(define-fun .def_110 () Bool (= .x.397 0))
(define-fun .def_112 () Bool (and .def_110 .def_111))
(define-fun .def_108 () (Array Int Int) (store .def_10 0 0))
(define-fun .def_109 () Bool (= .def_85 .def_108))
(define-fun .def_113 () Bool (and .def_109 .def_112))
(define-fun .def_114 () Bool (or .def_52 .def_113))
(define-fun .def_97 () Bool (<= .x.388 .x.400))
(define-fun .def_98 () Bool (not .def_97))
(define-fun .def_95 () (Array Int Int) (store .def_22 .x.400 4000))
(define-fun .def_96 () Bool (= .x.395 .def_95))
(define-fun .def_99 () Bool (and .def_96 .def_98))
(define-fun .def_92 () Bool (= .x.400 0))
(define-fun .def_93 () Bool (not .def_92))
(define-fun .def_100 () Bool (and .def_93 .def_99))
(define-fun .def_90 () (Array Int Int) (store .def_85 .x.400 1))
(define-fun .def_91 () Bool (= .x.389 .def_90))
(define-fun .def_101 () Bool (and .def_91 .def_100))
(define-fun .def_103 () Bool (and .def_101 .def_102))
(define-fun .def_88 () Bool (= .x.407 0))
(define-fun .def_104 () Bool (and .def_88 .def_103))
(define-fun .def_86 () Int (select .def_85 .x.400))
(define-fun .def_87 () Bool (= .def_86 0))
(define-fun .def_105 () Bool (and .def_87 .def_104))
(define-fun .def_106 () Bool (or .x.410 .def_105))
(define-fun .def_64 () Bool (and .def_62 .def_63))
(define-fun .def_66 () Bool (and .def_64 .def_65))
(define-fun .def_68 () Bool (and .def_66 .def_67))
(define-fun .def_69 () Bool (and .def_54 .def_68))
(define-fun .def_70 () Bool (and .def_56 .def_69))
(define-fun .def_72 () Bool (and .def_70 .def_71))
(define-fun .def_73 () Bool (and .loc.11 .def_72))
(define-fun .def_75 () Bool (and .def_73 .def_74))
(define-fun .def_77 () Bool (and .def_75 .def_76))
(define-fun .def_79 () Bool (and .def_77 .def_78))
(define-fun .def_81 () Bool (and .def_79 .def_80))
(define-fun .def_83 () Bool (and .def_81 .def_82))
(define-fun .def_107 () Bool (and .def_83 .def_106))
(define-fun .def_115 () Bool (and .def_107 .def_114))
(define-fun .def_528 () Bool (or .def_115 .def_527))
(define-fun .def_540 () Bool (! (and .def_528 .def_539) :trans true))
(define-fun .def_556 () Bool (and .def_60 .def_553))
(define-fun .def_557 () Bool (and .def_52 .def_556))
(define-fun .def_558 () Bool (! (not .def_557) :invar-property 0))
(assert true)
